NAME : berlin52-C-3-1-b.7596.tour
COMMENT : Length = 7596
COMMENT : Found by LKH-3 [Keld Helsgaun] Tue Jul 30 13:14:05 2024
TYPE : TOUR
DIMENSION : 52
TOUR_SECTION
1
22
31
18
3
17
21
42
7
2
30
23
20
50
29
16
44
34
35
36
39
40
38
37
46
48
24
5
15
6
4
25
12
28
27
26
47
13
14
52
11
51
33
43
10
9
8
41
19
45
32
49
-1
EOF
